\ENCODING=ISO-8859-1
\Problem name: ilog.cplex

Minimize
 obj1: 2147483647 x_0_0_0 + x_0_1_0 + x_0_2_0 + 10000 x_0_3_0 + x_1_0_0
       + x_2_0_0 + 50 x_3_0_0 + 2147483647 x_0_0_1 + x_0_1_1 + x_0_2_1
       + 10000 x_0_3_1 + x_1_0_1 + x_2_0_1 + 50 x_3_0_1 + 2147483647 x_1_1_0
       + x_1_2_0 + 10000 x_1_3_0 + 10000 x_2_1_0 + 10000 x_3_1_0
       + 2147483647 x_1_1_1 + x_1_2_1 + 10000 x_1_3_1 + 10000 x_2_1_1
       + 10000 x_3_1_1 + 2147483647 x_2_2_0 + 2 x_2_3_0 + 2 x_3_2_0
       + 2147483647 x_2_2_1 + 2 x_2_3_1 + 2 x_3_2_1 + 2147483647 x_3_3_0
       + 2147483647 x_3_3_1
Subject To
 flow_0_0:   x_0_1_0 + x_0_2_0 + x_0_3_0 - x_1_0_0 - x_2_0_0 - x_3_0_0  = 0
 flow_0_1:   x_0_1_1 + x_0_2_1 + x_0_3_1 - x_1_0_1 - x_2_0_1 - x_3_0_1  = 0
 flow_1_0:   - x_0_1_0 + x_1_0_0 + x_1_2_0 + x_1_3_0 - x_2_1_0 - x_3_1_0  = 0
 flow_1_1:   - x_0_1_1 + x_1_0_1 + x_1_2_1 + x_1_3_1 - x_2_1_1 - x_3_1_1  = 0
 flow_2_0:   - x_0_2_0 + x_2_0_0 - x_1_2_0 + x_2_1_0 + x_2_3_0 - x_3_2_0  = 0
 flow_2_1:   - x_0_2_1 + x_2_0_1 - x_1_2_1 + x_2_1_1 + x_2_3_1 - x_3_2_1  = 0
 flow_3_0:   - x_0_3_0 + x_3_0_0 - x_1_3_0 + x_3_1_0 - x_2_3_0 + x_3_2_0  = 0
 flow_3_1:   - x_0_3_1 + x_3_0_1 - x_1_3_1 + x_3_1_1 - x_2_3_1 + x_3_2_1  = 0
 serving_0:  y_0_1 + y_0_0  = 1
 serving_1:  y_1_1 + y_1_0  = 1
 depot_0:    x_0_0_0 + x_0_1_0 + x_0_2_0 + x_0_3_0 <= 1
 depot_1:    x_0_0_1 + x_0_1_1 + x_0_2_1 + x_0_3_1 <= 1
 visit_0_0:  - x_0_1_0 - x_0_2_0 - x_1_1_0 - x_1_2_0 - x_2_1_0 - x_3_1_0
             - x_2_2_0 - x_3_2_0 + y_0_0 <= 0
 visit_0_1:  - x_0_1_1 - x_0_2_1 - x_1_1_1 - x_1_2_1 - x_2_1_1 - x_3_1_1
             - x_2_2_1 - x_3_2_1 + y_0_1 <= 0
 visit_1_0:  - x_0_2_0 - x_1_2_0 - x_2_2_0 - x_3_2_0 + y_1_0 <= 0
 visit_1_1:  - x_0_2_1 - x_1_2_1 - x_2_2_1 - x_3_2_1 + y_1_1 <= 0
 capacity_0: 20 y_0_0 + 20 y_1_0 <= 20
 capacity_1: 20 y_0_1 + 20 y_1_1 <= 20
 mtz_1_2_0:  3 x_1_2_0 + u_1_0 - u_2_0 <= 2
 mtz_1_2_1:  3 x_1_2_1 + u_1_1 - u_2_1 <= 2
 mtz_1_3_0:  3 x_1_3_0 + u_1_0 - u_3_0 <= 2
 mtz_1_3_1:  3 x_1_3_1 + u_1_1 - u_3_1 <= 2
 mtz_2_1_0:  3 x_2_1_0 - u_1_0 + u_2_0 <= 2
 mtz_2_1_1:  3 x_2_1_1 - u_1_1 + u_2_1 <= 2
 mtz_2_3_0:  3 x_2_3_0 + u_2_0 - u_3_0 <= 2
 mtz_2_3_1:  3 x_2_3_1 + u_2_1 - u_3_1 <= 2
 mtz_3_1_0:  3 x_3_1_0 - u_1_0 + u_3_0 <= 2
 mtz_3_1_1:  3 x_3_1_1 - u_1_1 + u_3_1 <= 2
 mtz_3_2_0:  3 x_3_2_0 - u_2_0 + u_3_0 <= 2
 mtz_3_2_1:  3 x_3_2_1 - u_2_1 + u_3_1 <= 2
Bounds
 0 <= x_0_0_0 <= 1
 0 <= x_0_1_0 <= 1
 0 <= x_0_2_0 <= 1
 0 <= x_0_3_0 <= 1
 0 <= x_1_0_0 <= 1
 0 <= x_2_0_0 <= 1
 0 <= x_3_0_0 <= 1
 0 <= x_0_0_1 <= 1
 0 <= x_0_1_1 <= 1
 0 <= x_0_2_1 <= 1
 0 <= x_0_3_1 <= 1
 0 <= x_1_0_1 <= 1
 0 <= x_2_0_1 <= 1
 0 <= x_3_0_1 <= 1
 0 <= x_1_1_0 <= 1
 0 <= x_1_2_0 <= 1
 0 <= x_1_3_0 <= 1
 0 <= x_2_1_0 <= 1
 0 <= x_3_1_0 <= 1
 0 <= x_1_1_1 <= 1
 0 <= x_1_2_1 <= 1
 0 <= x_1_3_1 <= 1
 0 <= x_2_1_1 <= 1
 0 <= x_3_1_1 <= 1
 0 <= x_2_2_0 <= 1
 0 <= x_2_3_0 <= 1
 0 <= x_3_2_0 <= 1
 0 <= x_2_2_1 <= 1
 0 <= x_2_3_1 <= 1
 0 <= x_3_2_1 <= 1
 0 <= x_3_3_0 <= 1
 0 <= x_3_3_1 <= 1
 0 <= y_0_1 <= 1
 0 <= y_0_0 <= 1
 0 <= y_1_1 <= 1
 0 <= y_1_0 <= 1
 1 <= u_1_0 <= 3
 1 <= u_2_0 <= 3
 1 <= u_1_1 <= 3
 1 <= u_2_1 <= 3
 1 <= u_3_0 <= 3
 1 <= u_3_1 <= 3
Binaries
 x_0_0_0  x_0_1_0  x_0_2_0  x_0_3_0  x_1_0_0  x_2_0_0  x_3_0_0  x_0_0_1 
 x_0_1_1  x_0_2_1  x_0_3_1  x_1_0_1  x_2_0_1  x_3_0_1  x_1_1_0  x_1_2_0 
 x_1_3_0  x_2_1_0  x_3_1_0  x_1_1_1  x_1_2_1  x_1_3_1  x_2_1_1  x_3_1_1 
 x_2_2_0  x_2_3_0  x_3_2_0  x_2_2_1  x_2_3_1  x_3_2_1  x_3_3_0  x_3_3_1  y_0_1 
 y_0_0  y_1_1  y_1_0 
Generals
 u_1_0  u_2_0  u_1_1  u_2_1  u_3_0  u_3_1 
End
